33D32945 STP File, STP Format Version 1.0

SECTION Comments
Name "edge_n11_d3_s41"
Problem "Euclidean Steiner Tree Problem"
Remark "Generated with STPGenerator. 3 dimensions."
END

SECTION Graph
Nodes 11
END

SECTION Coordinates
DDD 0 0.6702460561 0.6702460561 0.6702460561
DDD 1 0.9116797088 0.9116797088 0.9116797088
DDD 2 0.3821349500 0.3821349500 0.3821349500
DDD 3 0.5965716008 0.5965716008 0.5965716008
DDD 4 0.2660512897 0.2660512897 0.2660512897
DDD 5 0.0223274580 0.0223274580 0.0223274580
DDD 6 0.7685739201 0.7685739201 0.7685739201
DDD 7 0.5612500564 0.5612500564 0.5612500564
DDD 8 0.4878506383 0.4878506383 0.4878506383
DDD 9 0.4318964698 0.4318964698 0.4318964698
DDD 10 0.8467889367 0.8467889367 0.8467889367
END
